p cnf 386 460
-5 -17 18 21 22 0
-5 -17 18 21 -22 0
-5 -17 18 -21 23 0
-5 -17 18 -21 -23 0
11 -2 16 24 25 0
11 -2 16 24 -25 0
11 -2 16 -24 26 0
11 -2 16 -24 -26 0
11 12 -14 27 28 0
11 12 -14 27 -28 0
11 12 -14 -27 29 0
11 12 -14 -27 -29 0
-5 6 7 30 31 0
-5 6 7 30 -31 0
-5 6 7 -30 32 0
-5 6 7 -30 -32 0
10 -14 11 33 34 0
10 -14 11 33 -34 0
10 -14 11 -33 35 0
10 -14 11 -33 -35 0
11 -16 -1 36 37 0
11 -16 -1 36 -37 0
11 -16 -1 -36 38 0
11 -16 -1 -36 -38 0
10 -13 14 39 40 0
10 -13 14 39 -40 0
10 -13 14 -39 41 0
10 -13 14 -39 -41 0
-14 -9 -18 42 43 0
-14 -9 -18 42 -43 0
-14 -9 -18 -42 44 0
-14 -9 -18 -42 -44 0
-2 19 1 45 46 0
-2 19 1 45 -46 0
-2 19 1 -45 47 0
-2 19 1 -45 -47 0
10 15 -20 48 49 0
10 15 -20 48 -49 0
10 15 -20 -48 50 0
10 15 -20 -48 -50 0
9 -12 -13 51 52 0
9 -12 -13 51 -52 0
9 -12 -13 -51 53 0
9 -12 -13 -51 -53 0
-20 8 -3 54 55 0
-20 8 -3 54 -55 0
-20 8 -3 -54 56 0
-20 8 -3 -54 -56 0
-18 -3 -7 57 58 0
-18 -3 -7 57 -58 0
-18 -3 -7 -57 59 0
-18 -3 -7 -57 -59 0
-10 1 -18 60 61 0
-10 1 -18 60 -61 0
-10 1 -18 -60 62 0
-10 1 -18 -60 -62 0
-16 10 -15 63 64 0
-16 10 -15 63 -64 0
-16 10 -15 -63 65 0
-16 10 -15 -63 -65 0
13 18 7 66 67 0
13 18 7 66 -67 0
13 18 7 -66 68 0
13 18 7 -66 -68 0
-16 -6 14 69 70 0
-16 -6 14 69 -70 0
-16 -6 14 -69 71 0
-16 -6 14 -69 -71 0
-17 5 4 72 73 0
-17 5 4 72 -73 0
-17 5 4 -72 74 0
-17 5 4 -72 -74 0
-3 4 2 75 76 0
-3 4 2 75 -76 0
-3 4 2 -75 77 0
-3 4 2 -75 -77 0
8 14 -16 78 79 0
8 14 -16 78 -79 0
8 14 -16 -78 80 0
8 14 -16 -78 -80 0
-15 1 19 81 82 0
-15 1 19 81 -82 0
-15 1 19 -81 83 0
-15 1 19 -81 -83 0
-15 -13 -17 84 85 0
-15 -13 -17 84 -85 0
-15 -13 -17 -84 86 0
-15 -13 -17 -84 -86 0
-10 9 4 87 88 0
-10 9 4 87 -88 0
-10 9 4 -87 89 0
-10 9 4 -87 -89 0
-16 -3 -11 90 91 0
-16 -3 -11 90 -91 0
-16 -3 -11 -90 92 0
-16 -3 -11 -90 -92 0
-18 3 -8 93 94 0
-18 3 -8 93 -94 0
-18 3 -8 -93 95 0
-18 3 -8 -93 -95 0
5 -20 -11 96 97 0
5 -20 -11 96 -97 0
5 -20 -11 -96 98 0
5 -20 -11 -96 -98 0
7 15 9 99 100 0
7 15 9 99 -100 0
7 15 9 -99 101 0
7 15 9 -99 -101 0
3 17 9 102 103 0
3 17 9 102 -103 0
3 17 9 -102 104 0
3 17 9 -102 -104 0
13 6 12 105 106 0
13 6 12 105 -106 0
13 6 12 -105 107 0
13 6 12 -105 -107 0
18 -20 -9 108 109 0
18 -20 -9 108 -109 0
18 -20 -9 -108 110 0
18 -20 -9 -108 -110 0
16 19 -14 111 112 0
16 19 -14 111 -112 0
16 19 -14 -111 113 0
16 19 -14 -111 -113 0
-4 -9 -8 114 115 0
-4 -9 -8 114 -115 0
-4 -9 -8 -114 116 0
-4 -9 -8 -114 -116 0
13 16 11 117 118 0
13 16 11 117 -118 0
13 16 11 -117 119 0
13 16 11 -117 -119 0
10 -15 6 120 121 0
10 -15 6 120 -121 0
10 -15 6 -120 122 0
10 -15 6 -120 -122 0
-7 -15 8 123 124 0
-7 -15 8 123 -124 0
-7 -15 8 -123 125 0
-7 -15 8 -123 -125 0
9 16 20 126 127 0
9 16 20 126 -127 0
9 16 20 -126 128 0
9 16 20 -126 -128 0
16 -6 10 129 130 0
16 -6 10 129 -130 0
16 -6 10 -129 131 0
16 -6 10 -129 -131 0
-18 -10 9 132 133 0
-18 -10 9 132 -133 0
-18 -10 9 -132 134 0
-18 -10 9 -132 -134 0
1 14 11 135 136 0
1 14 11 135 -136 0
1 14 11 -135 137 0
1 14 11 -135 -137 0
9 -3 -5 138 139 0
9 -3 -5 138 -139 0
9 -3 -5 -138 140 0
9 -3 -5 -138 -140 0
8 15 2 141 142 0
8 15 2 141 -142 0
8 15 2 -141 143 0
8 15 2 -141 -143 0
19 -14 -4 144 145 0
19 -14 -4 144 -145 0
19 -14 -4 -144 146 0
19 -14 -4 -144 -146 0
-19 20 4 147 148 0
-19 20 4 147 -148 0
-19 20 4 -147 149 0
-19 20 4 -147 -149 0
12 3 -5 150 151 0
12 3 -5 150 -151 0
12 3 -5 -150 152 0
12 3 -5 -150 -152 0
-7 12 15 153 154 0
-7 12 15 153 -154 0
-7 12 15 -153 155 0
-7 12 15 -153 -155 0
-10 -9 -1 156 157 0
-10 -9 -1 156 -157 0
-10 -9 -1 -156 158 0
-10 -9 -1 -156 -158 0
17 -16 -4 159 160 0
17 -16 -4 159 -160 0
17 -16 -4 -159 161 0
17 -16 -4 -159 -161 0
-14 -16 15 162 163 0
-14 -16 15 162 -163 0
-14 -16 15 -162 164 0
-14 -16 15 -162 -164 0
2 6 -7 165 166 0
2 6 -7 165 -166 0
2 6 -7 -165 167 0
2 6 -7 -165 -167 0
-19 13 3 168 169 0
-19 13 3 168 -169 0
-19 13 3 -168 170 0
-19 13 3 -168 -170 0
-20 13 12 171 172 0
-20 13 12 171 -172 0
-20 13 12 -171 173 0
-20 13 12 -171 -173 0
-10 1 5 174 175 0
-10 1 5 174 -175 0
-10 1 5 -174 176 0
-10 1 5 -174 -176 0
9 -15 -18 177 178 0
9 -15 -18 177 -178 0
9 -15 -18 -177 179 0
9 -15 -18 -177 -179 0
-7 14 17 180 181 0
-7 14 17 180 -181 0
-7 14 17 -180 182 0
-7 14 17 -180 -182 0
4 -19 -16 183 184 0
4 -19 -16 183 -184 0
4 -19 -16 -183 185 0
4 -19 -16 -183 -185 0
-9 -12 20 186 187 0
-9 -12 20 186 -187 0
-9 -12 20 -186 188 0
-9 -12 20 -186 -188 0
-1 -16 -14 189 190 0
-1 -16 -14 189 -190 0
-1 -16 -14 -189 191 0
-1 -16 -14 -189 -191 0
3 12 13 192 193 0
3 12 13 192 -193 0
3 12 13 -192 194 0
3 12 13 -192 -194 0
13 -18 20 195 196 0
13 -18 20 195 -196 0
13 -18 20 -195 197 0
13 -18 20 -195 -197 0
-9 17 -19 198 199 0
-9 17 -19 198 -199 0
-9 17 -19 -198 200 0
-9 17 -19 -198 -200 0
3 -20 9 201 202 0
3 -20 9 201 -202 0
3 -20 9 -201 203 0
3 -20 9 -201 -203 0
12 -20 6 204 205 0
12 -20 6 204 -205 0
12 -20 6 -204 206 0
12 -20 6 -204 -206 0
-9 -8 -13 207 208 0
-9 -8 -13 207 -208 0
-9 -8 -13 -207 209 0
-9 -8 -13 -207 -209 0
-6 9 -17 210 211 0
-6 9 -17 210 -211 0
-6 9 -17 -210 212 0
-6 9 -17 -210 -212 0
-20 -4 -18 213 214 0
-20 -4 -18 213 -214 0
-20 -4 -18 -213 215 0
-20 -4 -18 -213 -215 0
18 12 3 216 217 0
18 12 3 216 -217 0
18 12 3 -216 218 0
18 12 3 -216 -218 0
-12 -14 6 219 220 0
-12 -14 6 219 -220 0
-12 -14 6 -219 221 0
-12 -14 6 -219 -221 0
17 7 9 222 223 0
17 7 9 222 -223 0
17 7 9 -222 224 0
17 7 9 -222 -224 0
6 -7 -10 225 226 0
6 -7 -10 225 -226 0
6 -7 -10 -225 227 0
6 -7 -10 -225 -227 0
-1 -17 -20 228 229 0
-1 -17 -20 228 -229 0
-1 -17 -20 -228 230 0
-1 -17 -20 -228 -230 0
-12 9 4 231 232 0
-12 9 4 231 -232 0
-12 9 4 -231 233 0
-12 9 4 -231 -233 0
-20 5 -17 234 235 0
-20 5 -17 234 -235 0
-20 5 -17 -234 236 0
-20 5 -17 -234 -236 0
6 -15 3 237 238 0
6 -15 3 237 -238 0
6 -15 3 -237 239 0
6 -15 3 -237 -239 0
13 -4 -10 240 241 0
13 -4 -10 240 -241 0
13 -4 -10 -240 242 0
13 -4 -10 -240 -242 0
-7 -20 -8 243 244 0
-7 -20 -8 243 -244 0
-7 -20 -8 -243 245 0
-7 -20 -8 -243 -245 0
-6 15 -13 246 247 0
-6 15 -13 246 -247 0
-6 15 -13 -246 248 0
-6 15 -13 -246 -248 0
14 -1 17 249 250 0
14 -1 17 249 -250 0
14 -1 17 -249 251 0
14 -1 17 -249 -251 0
4 -5 -17 252 253 0
4 -5 -17 252 -253 0
4 -5 -17 -252 254 0
4 -5 -17 -252 -254 0
14 -3 -15 255 256 0
14 -3 -15 255 -256 0
14 -3 -15 -255 257 0
14 -3 -15 -255 -257 0
-14 19 -2 258 259 0
-14 19 -2 258 -259 0
-14 19 -2 -258 260 0
-14 19 -2 -258 -260 0
-2 20 13 261 262 0
-2 20 13 261 -262 0
-2 20 13 -261 263 0
-2 20 13 -261 -263 0
-9 2 1 264 265 0
-9 2 1 264 -265 0
-9 2 1 -264 266 0
-9 2 1 -264 -266 0
1 -6 -19 267 268 0
1 -6 -19 267 -268 0
1 -6 -19 -267 269 0
1 -6 -19 -267 -269 0
1 -19 -5 270 271 0
1 -19 -5 270 -271 0
1 -19 -5 -270 272 0
1 -19 -5 -270 -272 0
-18 10 -13 273 274 0
-18 10 -13 273 -274 0
-18 10 -13 -273 275 0
-18 10 -13 -273 -275 0
-19 8 -18 276 277 0
-19 8 -18 276 -277 0
-19 8 -18 -276 278 0
-19 8 -18 -276 -278 0
-15 11 -20 279 280 0
-15 11 -20 279 -280 0
-15 11 -20 -279 281 0
-15 11 -20 -279 -281 0
-18 -9 5 282 283 0
-18 -9 5 282 -283 0
-18 -9 5 -282 284 0
-18 -9 5 -282 -284 0
-6 -16 19 285 286 0
-6 -16 19 285 -286 0
-6 -16 19 -285 287 0
-6 -16 19 -285 -287 0
10 -17 19 288 289 0
10 -17 19 288 -289 0
10 -17 19 -288 290 0
10 -17 19 -288 -290 0
-1 15 -12 291 292 0
-1 15 -12 291 -292 0
-1 15 -12 -291 293 0
-1 15 -12 -291 -293 0
294 295 297 301 309 0
294 295 297 301 -309 0
294 295 297 -301 310 0
294 295 297 -301 -310 0
294 295 -297 302 311 0
294 295 -297 302 -311 0
294 295 -297 -302 312 0
294 295 -297 -302 -312 0
294 -295 298 303 313 0
294 -295 298 303 -313 0
294 -295 298 -303 314 0
294 -295 298 -303 -314 0
294 -295 -298 304 315 0
294 -295 -298 304 -315 0
294 -295 -298 -304 316 0
294 -295 -298 -304 -316 0
-294 296 299 305 317 0
-294 296 299 305 -317 0
-294 296 299 -305 318 0
-294 296 299 -305 -318 0
-294 296 -299 306 319 0
-294 296 -299 306 -319 0
-294 296 -299 -306 320 0
-294 296 -299 -306 -320 0
-294 -296 300 307 321 0
-294 -296 300 307 -321 0
-294 -296 300 -307 322 0
-294 -296 300 -307 -322 0
-294 -296 -300 308 323 0
-294 -296 -300 308 -323 0
-294 -296 -300 -308 324 0
-294 -296 -300 -308 -324 0
325 326 328 332 340 0
325 326 328 332 -340 0
325 326 328 -332 341 0
325 326 328 -332 -341 0
325 326 -328 333 342 0
325 326 -328 333 -342 0
325 326 -328 -333 343 0
325 326 -328 -333 -343 0
325 -326 329 334 344 0
325 -326 329 334 -344 0
325 -326 329 -334 345 0
325 -326 329 -334 -345 0
325 -326 -329 335 346 0
325 -326 -329 335 -346 0
325 -326 -329 -335 347 0
325 -326 -329 -335 -347 0
-325 327 330 336 348 0
-325 327 330 336 -348 0
-325 327 330 -336 349 0
-325 327 330 -336 -349 0
-325 327 -330 337 350 0
-325 327 -330 337 -350 0
-325 327 -330 -337 351 0
-325 327 -330 -337 -351 0
-325 -327 331 338 352 0
-325 -327 331 338 -352 0
-325 -327 331 -338 353 0
-325 -327 331 -338 -353 0
-325 -327 -331 339 354 0
-325 -327 -331 339 -354 0
-325 -327 -331 -339 355 0
-325 -327 -331 -339 -355 0
356 357 359 363 371 0
356 357 359 363 -371 0
356 357 359 -363 372 0
356 357 359 -363 -372 0
356 357 -359 364 373 0
356 357 -359 364 -373 0
356 357 -359 -364 374 0
356 357 -359 -364 -374 0
356 -357 360 365 375 0
356 -357 360 365 -375 0
356 -357 360 -365 376 0
356 -357 360 -365 -376 0
356 -357 -360 366 377 0
356 -357 -360 366 -377 0
356 -357 -360 -366 378 0
356 -357 -360 -366 -378 0
-356 358 361 367 379 0
-356 358 361 367 -379 0
-356 358 361 -367 380 0
-356 358 361 -367 -380 0
-356 358 -361 368 381 0
-356 358 -361 368 -381 0
-356 358 -361 -368 382 0
-356 358 -361 -368 -382 0
-356 -358 362 369 383 0
-356 -358 362 369 -383 0
-356 -358 362 -369 384 0
-356 -358 362 -369 -384 0
-356 -358 -362 370 385 0
-356 -358 -362 370 -385 0
-356 -358 -362 -370 386 0
-356 -358 -362 -370 -386 0

